0 38
0 208
0 236
0 289
0 314
0 319
0 328
0 532
0 564
0 575
0 710
0 780
0 805
0 1461
0 1462
0 1463
0 1464
1 39
1 49
1 77
1 83
1 172
1 176
1 185
1 219
1 262
1 341
1 345
1 375
1 376
1 389
1 424
1 465
1 550
1 551
1 572
1 631
1 746
1 747
1 1586
2 39
2 184
2 262
2 282
2 285
2 320
2 414
2 502
2 516
2 561
2 652
2 927
2 928
2 929
2 930
2 931
2 932
3 7
3 10
3 35
3 42
3 62
3 116
3 135
3 183
3 192
3 312
3 337
3 356
3 372
3 388
3 405
3 603
3 604
3 605
3 812
4 57
4 234
4 236
4 273
4 282
4 291
4 294
4 305
4 318
4 329
4 346
4 392
4 394
4 396
4 1361
4 1362
4 1363
5 288
5 319
5 355
5 467
5 1316
5 1317
5 1318
5 1319
5 1320
5 1321
5 1322
6 92
6 284
6 292
6 314
6 336
6 364
6 383
6 440
6 484
6 544
6 640
6 641
6 642
6 721
6 933
6 934
6 935
6 936
6 937
6 938
6 939
6 940
6 941
6 942
6 943
6 944
6 945
6 946
6 947
6 948
6 949
6 950
7 10
7 94
7 116
7 135
7 183
7 192
7 312
7 319
7 334
7 337
7 356
7 372
7 381
7 388
7 389
7 405
7 632
8 193
8 384
8 790
9 14
9 33
9 163
9 175
9 253
9 259
9 263
9 284
9 314
9 401
9 476
9 504
9 578
9 579
9 787
9 788
9 789
9 1725
9 1726
9 1727
9 1728
9 1729
10 35
10 42
10 62
10 89
10 94
10 116
10 135
10 183
10 192
10 289
10 312
10 337
10 356
10 372
10 388
10 405
10 447
10 452
10 526
10 1343
11 554
11 752
11 1620
12 74
12 88
12 150
12 234
12 289
12 290
12 304
12 305
12 318
12 329
12 338
12 367
12 394
12 395
12 418
12 421
12 452
12 461
12 517
12 791
12 1095
12 1096
12 1097
12 1098
12 1099
12 1100
12 1101
12 1102
12 1103
13 39
13 165
13 185
13 219
13 342
13 497
13 1108
13 1109
14 33
14 175
14 316
14 328
14 723
14 724
14 1485
14 1486
14 1487
15 77
15 243
15 284
15 327
15 328
15 381
15 386
15 406
15 734
15 804
15 1497
15 1498
15 1499
15 1500
15 1501
15 1502
15 1503
15 1504
15 1505
15 1506
15 1507
15 1508
15 1509
15 1510
15 1511
15 1512
15 1513
15 1514
15 1515
15 1516
15 1517
16 165
16 284
16 306
16 510
16 511
16 624
16 625
16 626
16 631
16 845
16 846
16 1963
16 1964
16 1965
16 1966
16 1967
16 1968
16 1969
16 1970
16 1971
16 1972
16 1973
16 1974
16 1975
16 1976
16 1977
16 1978
17 103
17 121
17 158
17 208
17 288
17 392
17 393
17 411
17 451
17 477
17 481
17 506
17 514
17 565
17 619
17 630
17 658
17 661
17 673
17 677
17 772
17 773
17 1056
17 1057
17 1058
17 1059
17 1060
17 1061
17 1062
17 1063
17 1064
17 1065
17 1066
17 1067
17 1068
17 1069
17 1070
17 1071
17 1072
17 1073
17 1074
17 1075
17 1076
17 1077
17 1078
17 1079
18 141
18 324
18 552
18 704
18 705
18 1441
18 1442
19 70
19 173
19 363
19 491
19 818
19 1493
20 184
20 263
20 264
20 293
20 319
20 320
20 347
20 414
20 415
20 447
20 506
20 507
20 508
20 620
20 621
20 622
20 623
20 840
20 841
20 842
20 843
20 1923
20 1924
20 1925
20 1926
20 1927
20 1928
20 1929
20 1930
20 1931
20 1932
20 1933
20 1934
20 1935
20 1936
20 1937
20 1938
20 1939
20 1940
20 1941
20 1942
20 1943
20 1944
20 1945
20 1946
20 1947
20 1948
20 1949
20 1950
20 1951
20 1952
20 1953
21 314
21 328
21 334
21 655
21 656
21 741
22 549
22 745
22 1585
23 46
23 77
23 141
23 146
23 196
23 284
23 381
23 386
23 398
23 417
23 482
23 483
23 495
23 589
23 596
23 597
23 615
23 668
23 762
23 763
23 764
23 806
23 821
23 1136
23 1137
23 1138
23 1139
24 26
24 224
24 299
24 334
24 397
24 521
24 659
25 145
25 250
25 263
25 284
25 288
25 292
25 306
25 347
25 352
25 364
25 365
25 399
25 406
25 419
25 432
25 444
25 446
25 454
25 464
25 466
25 477
25 506
25 507
25 516
25 517
25 541
25 577
25 590
25 670
25 671
25 672
25 679
25 693
25 697
25 717
25 743
25 807
25 811
25 813
25 825
25 1164
25 1165
25 1166
25 1167
25 1168
25 1169
25 1170
25 1171
25 1172
25 1173
25 1174
25 1175
25 1176
25 1177
25 1178
25 1179
25 1180
25 1181
25 1182
25 1183
25 1184
25 1185
25 1186
25 1187
25 1188
25 1189
25 1190
25 1191
25 1192
25 1193
25 1194
25 1195
25 1196
25 1197
25 1198
25 1199
25 1200
25 1201
25 1202
25 1203
25 1204
25 1205
25 1206
25 1207
25 1208
25 1209
25 1210
25 1211
25 1212
25 1213
25 1214
25 1215
25 1216
25 1217
25 1218
25 1219
25 1220
25 1221
25 1222
25 1223
25 1224
25 1225
25 1226
25 1227
25 1228
25 1229
25 1230
25 1231
25 1232
25 1233
25 1234
25 1235
25 1236
25 1237
25 1238
25 1239
25 1240
25 1241
26 180
26 397
26 521
27 477
27 1754
27 1755
27 1756
27 1757
27 1758
27 1759
27 1760
27 1761
27 1762
27 1763
27 1764
27 1765
27 1766
27 1767
27 1768
27 1769
27 1770
27 1771
27 1772
27 1773
27 1774
27 1775
27 1776
27 1777
27 1778
27 1779
27 1780
27 1781
27 1782
27 1783
28 141
28 145
28 347
28 365
28 379
28 450
28 517
28 522
28 539
28 548
28 676
28 682
28 757
28 792
28 1245
28 1246
28 1247
28 1248
28 1249
28 1250
28 1251
28 1252
28 1253
28 1254
28 1255
28 1256
28 1257
28 1258
28 1259
28 1260
28 1261
28 1262
28 1263
28 1264
28 1265
29 58
29 89
29 222
29 264
29 317
29 355
29 370
29 425
29 453
29 471
29 527
29 528
29 635
29 668
29 915
30 33
30 124
30 259
30 314
30 390
30 399
30 484
30 541
30 735
30 758
30 1518
30 1519
30 1520
30 1521
30 1522
30 1523
30 1524
30 1525
30 1526
30 1527
30 1528
31 147
31 807
31 1805
31 1806
31 1807
31 1808
31 1809
31 1810
31 1811
31 1812
31 1813
31 1814
31 1815
31 1816
31 1817
31 1818
31 1819
31 1820
31 1821
31 1822
31 1823
31 1824
31 1825
31 1826
31 1827
31 1828
31 1829
31 1830
31 1831
31 1832
32 243
32 264
32 293
32 357
32 358
32 371
32 456
32 479
32 509
32 546
32 591
32 594
32 756
32 799
32 857
32 858
32 859
33 71
33 77
33 163
33 207
33 217
33 253
33 259
33 279
33 283
33 401
33 476
33 512
33 549
33 578
33 624
33 735
33 789
33 900
34 149
34 215
34 420
34 531
34 555
34 615
34 708
34 753
34 1422
34 1423
35 62
35 130
35 183
35 235
35 282
35 312
35 316
35 337
35 613
35 1596
36 52
36 77
36 340
36 366
36 369
36 386
36 419
36 422
36 425
36 427
36 442
36 453
36 458
36 469
36 495
36 527
36 528
36 580
36 611
36 686
36 739
36 768
36 845
36 1365
36 1366
36 1367
36 1368
36 1369
36 1370
36 1371
36 1372
36 1373
36 1374
36 1375
36 1376
36 1377
37 95
37 151
37 346
37 422
37 436
37 453
37 518
37 566
37 696
37 722
37 736
37 754
37 755
37 766
37 767
37 842
37 1273
37 1274
37 1275
38 167
38 235
38 282
38 320
38 344
38 353
38 493
38 565
38 629
38 710
39 49
39 97
39 113
39 114
39 119
39 172
39 176
39 185
39 188
39 219
39 239
39 251
39 257
39 321
39 341
39 342
39 345
39 375
39 376
39 1911
40 66
40 110
40 327
40 343
40 362
40 379
40 382
40 411
40 412
40 416
40 423
40 432
40 838
40 1621
40 1622
40 1623
40 1624
40 1625
40 1626
40 1627
40 1628
41 70
41 263
41 293
41 314
41 328
41 390
41 445
41 446
41 448
41 504
41 832
41 833
41 834
41 835
41 836
41 837
41 1912
41 1913
41 1914
41 1915
41 1916
41 1917
41 1918
41 1919
41 1920
42 62
42 116
42 135
42 183
42 192
42 312
42 337
42 388
42 405
42 605
42 812
43 235
43 314
43 347
43 449
43 629
43 630
43 631
43 847
43 848
43 1979
43 1980
43 1981
43 1982
43 1983
43 1984
43 1985
43 1986
43 1987
43 1988
43 1989
43 1990
43 1991
43 1992
43 1993
43 1994
43 1995
43 1996
43 1997
44 435
44 514
44 521
44 543
44 731
44 732
44 733
44 886
45 89
45 262
45 263
45 264
45 292
45 317
45 340
45 347
45 355
45 370
45 371
45 402
45 424
45 430
45 447
45 468
45 480
45 515
45 536
45 537
45 571
45 591
45 623
45 645
45 646
45 671
45 699
45 720
45 746
45 995
45 996
45 997
45 998
45 999
45 1000
45 1001
45 1002
45 1003
45 1004
45 1005
45 1006
45 1007
45 1008
45 1009
45 1010
45 1011
45 1012
45 1013
45 1014
46 196
46 292
46 495
46 1458
46 1459
46 1460
47 133
47 234
47 235
47 299
47 306
47 347
47 392
47 410
47 434
47 469
47 563
47 564
47 565
47 630
47 768
47 769
47 1653
47 1654
47 1655
47 1656
47 1657
47 1658
47 1659
47 1660
47 1661
47 1662
47 1663
47 1664
47 1665
47 1666
47 1667
47 1668
47 1669
48 75
48 83
48 106
48 126
48 206
48 280
48 366
48 433
48 460
48 474
48 485
48 542
48 808
48 819
49 91
49 176
49 187
49 219
49 247
49 326
49 441
49 498
49 499
49 500
49 501
49 592
49 593
49 801
49 802
49 803
49 1789
49 1790
50 540
50 901
51 88
51 109
51 123
51 234
51 273
51 290
51 291
51 304
51 305
51 323
51 332
51 381
52 127
52 234
52 264
52 273
52 289
52 299
52 304
52 353
52 374
52 410
52 456
52 469
52 518
52 839
52 1242
52 1243
52 1244
53 66
53 134
53 141
53 343
53 346
53 363
53 382
53 411
53 412
53 423
53 568
53 617
53 773
53 774
54 89
54 179
54 262
54 263
54 292
54 328
54 366
54 390
54 398
54 433
54 558
54 595
54 627
54 628
54 1043
54 1044
54 1045
54 1046
54 1047
54 1048
54 1049
55 73
55 141
55 557
55 657
55 1092
55 1093
56 164
56 175
56 284
56 447
56 552
56 626
56 748
56 1140
56 1141
56 1142
56 1143
56 1144
56 1145
56 1146
56 1147
56 1148
56 1149
56 1150
56 1151
57 78
57 81
57 273
57 351
57 396
57 725
58 264
58 453
58 509
58 527
58 528
58 635
58 913
58 914
59 263
59 365
59 1344
59 1345
59 1346
59 1347
59 1348
59 1349
59 1350
59 1351
59 1352
59 1353
59 1354
59 1355
59 1356
59 1357
60 82
60 222
60 244
60 262
60 263
60 264
60 292
60 317
60 336
60 339
60 350
60 357
60 380
60 402
60 424
60 438
60 459
60 479
60 480
60 684
60 902
60 903
60 904
61 78
61 234
61 235
61 236
61 320
61 329
61 343
61 358
61 374
61 411
61 502
61 503
61 619
61 1909
61 1910
62 94
62 116
62 183
62 192
62 312
62 337
62 388
62 405
62 603
62 604
63 178
63 333
63 468
63 529
63 1266
63 1267
64 212
64 236
64 294
64 374
64 392
64 396
64 457
64 502
65 131
65 164
65 387
65 486
65 810
65 1582
66 110
66 186
66 210
66 213
66 236
66 343
66 382
66 412
66 568
66 774
67 77
67 134
67 263
67 340
67 390
67 406
67 407
67 408
67 409
67 439
67 442
67 494
67 511
67 611
67 612
67 613
67 614
67 820
67 821
67 822
67 823
67 1883
67 1884
67 1885
67 1886
67 1887
68 141
68 175
68 225
68 263
68 306
68 324
68 334
68 349
68 365
68 379
68 544
68 553
68 567
68 740
68 827
68 1536
68 1537
68 1538
68 1539
68 1540
68 1541
68 1542
68 1543
68 1544
69 80
69 89
69 111
69 233
69 264
69 293
69 306
69 340
69 349
69 371
69 391
69 402
69 403
69 407
69 408
69 409
69 415
69 600
69 601
69 1838
69 1839
69 1840
70 173
70 262
70 263
70 389
70 490
70 491
70 492
70 493
70 818
70 819
70 1881
70 1882
71 259
71 399
71 427
71 455
71 467
71 544
71 546
71 698
71 1407
71 1408
71 1409
71 1410
71 1411
71 1412
72 93
72 121
72 235
72 288
72 319
72 324
72 383
72 473
72 519
72 548
72 570
72 576
72 640
72 641
72 642
72 643
72 771
72 888
72 889
72 890
72 891
73 189
73 1027
74 234
74 273
74 290
74 291
74 304
74 398
74 399
74 421
74 436
74 736
74 1529
75 83
75 106
75 112
75 126
75 280
76 282
76 327
76 512
76 564
76 647
76 672
76 680
76 700
76 723
76 840
76 868
76 869
76 870
76 871
76 872
76 873
76 874
76 875
76 876
76 877
76 878
76 879
76 880
76 881
76 882
76 883
76 884
76 885
77 127
77 264
77 293
77 339
77 419
77 420
77 422
77 427
77 442
77 633
77 686
77 688
77 826
77 892
77 893
77 894
77 895
77 896
78 81
78 236
78 273
78 394
78 503
78 1160
79 407
79 1597
79 1598
80 83
80 96
80 111
80 112
80 268
80 363
80 389
80 554
80 643
80 662
80 663
80 664
80 959
81 234
81 351
81 1272
82 89
82 264
82 293
82 317
82 355
82 357
82 370
82 371
82 402
82 415
82 479
82 480
82 591
82 799
82 800
82 1785
82 1786
82 1787
82 1788
83 106
83 112
83 126
83 206
83 254
83 280
83 433
83 460
83 474
83 485
83 598
83 639
84 199
84 201
84 289
84 334
84 358
84 404
84 413
85 263
85 292
85 306
85 328
85 336
85 339
85 365
85 380
85 432
85 445
85 468
85 541
85 558
85 579
85 625
85 659
85 749
85 787
85 836
85 844
85 965
85 966
85 967
85 968
85 969
85 970
85 971
85 972
85 973
85 974
85 975
85 976
85 977
85 978
85 979
85 980
85 981
85 982
85 983
85 984
85 985
85 986
85 987
85 988
85 989
85 990
86 211
86 360
86 375
86 427
86 455
86 622
86 634
86 669
86 798
86 849
86 850
86 851
86 852
86 853
86 854
87 347
87 386
87 464
87 742
87 743
87 744
87 790
87 1549
87 1550
87 1551
87 1552
87 1553
87 1554
87 1555
87 1556
87 1557
87 1558
87 1559
87 1560
87 1561
87 1562
87 1563
87 1564
87 1565
87 1566
87 1567
87 1568
87 1569
87 1570
87 1571
87 1572
87 1573
87 1574
87 1575
87 1576
87 1577
87 1578
87 1579
87 1580
87 1581
88 96
88 104
88 109
88 123
88 129
88 150
88 166
88 180
88 234
88 273
88 290
88 291
88 304
88 305
88 318
88 323
88 332
88 351
88 361
88 373
88 524
88 667
89 92
89 95
89 104
89 113
89 114
89 125
89 132
89 135
89 137
89 164
89 179
89 258
89 264
89 275
89 288
89 302
89 317
89 359
89 420
89 430
89 455
89 536
89 537
89 553
89 644
89 719
89 910
89 911
89 912
90 125
90 204
90 327
90 378
90 475
90 563
90 706
90 707
90 1051
90 1052
90 1053
90 1054
91 176
91 247
91 326
91 383
91 441
91 498
91 499
91 500
91 501
91 546
91 592
91 593
91 801
91 803
91 1545
91 1546
91 1547
91 1548
92 183
92 424
92 536
92 537
92 719
92 720
92 721
92 1483
93 140
93 547
93 548
93 1583
93 1584
94 116
94 135
94 183
94 192
94 312
94 337
94 356
94 372
94 388
94 603
94 604
94 605
95 236
95 242
95 262
95 346
95 371
95 414
95 422
95 436
95 561
95 765
95 766
95 767
95 1643
95 1644
96 104
96 111
96 129
96 150
96 166
96 234
96 268
96 273
96 291
96 304
96 305
96 318
96 323
96 351
96 361
96 367
96 395
97 216
97 428
97 489
97 496
97 559
97 560
97 761
98 770
98 771
98 1672
98 1673
98 1674
99 124
99 141
99 306
99 429
99 535
99 1415
99 1416
99 1417
99 1418
99 1419
99 1420
100 653
100 898
100 899
101 246
101 344
101 456
101 492
101 699
102 124
102 141
102 319
102 324
102 487
102 539
102 1492
103 508
103 1104
103 1105
103 1106
103 1107
104 233
104 234
104 262
104 264
104 291
104 292
104 315
104 318
104 323
104 332
104 351
104 366
104 367
104 395
104 402
104 418
104 437
104 454
104 467
104 471
104 1156
104 1157
105 145
105 288
105 352
105 364
105 429
105 443
105 475
105 525
105 1336
105 1337
105 1338
105 1339
105 1340
105 1341
105 1342
106 112
106 254
106 280
106 460
106 474
106 485
106 542
106 612
106 639
106 809
106 897
107 202
107 216
107 488
107 489
107 606
107 607
107 608
107 609
107 610
108 145
108 289
108 299
108 320
108 352
108 374
108 378
108 447
108 450
108 475
108 487
108 533
108 584
108 601
108 629
108 632
108 709
108 1039
108 1040
108 1041
108 1042
109 273
109 290
109 291
109 304
109 461
109 737
109 1532
109 1533
109 1534
110 343
110 346
110 412
110 448
110 838
110 1922
111 268
111 378
111 439
111 519
111 662
111 663
111 664
111 678
111 752
111 1132
111 1133
111 1134
112 254
112 386
112 406
112 433
112 485
112 598
112 808
112 809
112 1833
112 1834
112 1835
112 1836
112 1837
113 114
113 165
113 176
113 262
113 339
113 345
113 376
113 380
113 408
113 465
113 550
114 165
114 176
114 262
114 339
114 345
114 376
114 380
114 408
114 465
114 550
115 191
115 226
115 264
115 293
115 317
115 340
115 349
115 355
115 369
115 370
115 371
115 403
115 409
115 415
115 429
115 430
115 431
115 481
115 594
115 645
115 654
115 960
115 961
115 962
115 963
115 964
116 135
116 192
116 337
116 356
116 372
116 405
117 284
117 306
117 532
117 626
117 660
117 1125
117 1126
118 473
118 682
118 1311
118 1312
118 1313
118 1314
118 1315
119 263
119 292
119 327
119 328
119 336
119 339
119 366
119 380
119 381
119 390
119 408
120 197
120 198
120 440
120 519
120 678
120 1276
121 140
121 268
121 1894
121 1895
121 1896
121 1897
121 1898
121 1899
121 1900
121 1901
121 1902
121 1903
122 264
122 293
122 317
122 340
122 349
122 355
122 357
122 370
122 371
122 409
122 430
122 431
122 443
122 455
122 481
122 509
122 513
122 569
122 600
122 713
122 800
122 921
122 922
123 234
123 273
123 290
123 291
123 304
123 305
123 323
123 332
123 351
123 358
123 361
123 373
123 392
123 667
124 785
124 1708
125 204
125 235
125 262
125 292
125 299
125 309
125 618
125 685
126 280
126 386
126 406
126 420
126 458
126 460
126 531
126 542
126 708
126 738
126 1451
126 1452
126 1453
126 1454
126 1455
126 1456
126 1457
127 263
127 284
127 289
127 344
127 364
127 583
127 600
127 683
127 1323
127 1324
127 1325
127 1326
127 1327
127 1328
127 1329
127 1330
127 1331
127 1332
128 250
128 319
128 419
128 454
128 687
128 688
128 689
128 690
128 691
128 692
128 693
128 694
128 695
128 696
128 697
128 747
128 1378
128 1379
128 1380
128 1381
128 1382
128 1383
128 1384
128 1385
128 1386
128 1387
128 1388
128 1389
128 1390
128 1391
128 1392
128 1393
128 1394
128 1395
128 1396
128 1397
128 1398
128 1399
128 1400
128 1401
128 1402
128 1403
128 1404
128 1405
128 1406
129 150
129 166
129 203
129 234
129 273
129 290
129 291
129 304
129 305
129 318
129 323
129 332
129 351
129 361
129 373
129 418
130 435
130 543
130 677
130 1268
130 1269
130 1270
131 164
131 248
131 387
131 486
131 599
131 810
132 325
132 381
132 392
132 837
132 847
132 1413
133 354
133 368
133 722
133 822
133 1484
134 823
134 1161
134 1162
134 1163
135 192
135 312
135 314
135 339
135 356
136 282
136 354
136 368
136 385
136 478
136 502
136 503
136 585
136 586
136 588
136 795
136 796
136 1473
136 1474
137 262
137 328
137 402
137 425
137 471
137 1695
137 1696
138 306
138 784
138 785
138 814
138 1718
138 1719
138 1720
138 1721
138 1722
138 1723
138 1724
139 391
139 679
139 1277
139 1278
139 1279
139 1280
139 1281
139 1282
139 1283
139 1284
139 1285
139 1286
139 1287
139 1288
139 1289
139 1290
139 1291
139 1292
140 539
140 547
140 1414
141 152
141 208
141 310
141 331
141 490
141 704
141 1110
142 293
142 407
142 409
142 443
142 533
142 569
142 577
142 614
142 711
142 712
142 713
142 714
142 742
142 781
142 1465
142 1466
142 1467
142 1468
142 1469
142 1470
142 1471
142 1472
143 243
143 676
143 860
143 861
143 862
143 863
143 864
143 865
144 171
144 284
144 462
144 463
144 545
144 1055
145 190
145 208
145 260
145 281
145 311
145 344
145 450
145 580
145 581
145 582
145 792
145 793
145 794
145 1730
145 1731
145 1732
145 1733
145 1734
145 1735
145 1736
145 1737
145 1738
145 1739
145 1740
145 1741
145 1742
145 1743
145 1744
145 1745
145 1746
145 1747
145 1748
145 1749
145 1750
145 1751
146 196
146 263
146 292
146 336
146 432
146 446
146 482
146 483
146 484
146 595
146 596
146 597
146 805
146 806
146 1792
146 1793
146 1794
146 1795
146 1796
146 1797
146 1798
146 1799
146 1800
146 1801
146 1802
146 1803
146 1804
147 319
147 419
147 547
147 556
147 575
147 576
147 653
147 654
147 687
147 1080
147 1081
147 1082
147 1083
147 1084
147 1085
147 1086
147 1087
147 1088
147 1089
147 1090
148 701
148 1159
149 168
149 215
149 224
149 271
149 377
149 555
149 753
149 1629
149 1630
149 1631
150 166
150 290
150 323
150 332
150 351
150 361
150 367
150 373
150 395
150 461
151 439
151 777
151 1693
152 263
152 284
152 324
152 364
152 365
152 391
152 432
152 446
152 466
152 467
152 489
152 579
152 749
152 750
152 751
152 816
152 824
152 1599
152 1600
152 1601
152 1602
152 1603
152 1604
152 1605
152 1606
152 1607
152 1608
152 1609
152 1610
152 1611
153 263
153 292
153 300
153 380
153 391
153 445
153 484
153 562
153 625
153 782
153 1645
153 1646
153 1647
153 1648
153 1649
153 1650
153 1651
153 1652
154 289
154 324
154 353
154 416
154 490
154 583
154 584
154 1753
155 473
155 574
155 1704
156 160
156 282
156 354
156 368
156 385
156 478
156 585
156 586
156 587
156 588
156 795
156 796
157 234
157 235
157 236
157 282
157 289
157 299
157 353
157 362
157 394
157 400
157 416
157 452
158 282
158 299
158 338
158 400
158 493
158 658
158 841
158 1094
159 681
159 726
159 750
159 1294
159 1295
159 1296
159 1297
159 1298
159 1299
159 1300
159 1301
159 1302
160 282
160 288
160 289
160 320
160 354
160 368
160 381
160 400
160 411
160 566
160 1670
160 1671
161 238
161 389
161 728
161 729
161 730
161 1489
161 1490
161 1491
162 193
162 263
162 407
162 450
162 569
162 779
162 780
162 781
162 1697
162 1698
162 1699
163 207
163 253
163 259
163 476
163 578
164 248
164 292
164 387
164 486
164 534
164 599
165 172
165 284
165 624
165 802
166 234
166 290
166 291
166 304
166 305
166 318
166 323
166 332
166 361
166 524
167 410
167 492
167 494
167 830
168 526
168 734
168 991
168 992
168 993
168 994
169 580
169 846
169 1488
170 193
170 336
170 340
170 390
170 403
170 1535
171 462
171 463
171 530
171 545
172 219
172 341
172 465
173 491
173 738
173 739
174 364
174 466
174 532
174 556
174 703
174 730
174 770
174 1427
174 1428
174 1429
174 1430
174 1431
174 1432
174 1433
174 1434
174 1435
174 1436
174 1437
174 1438
174 1439
174 1440
175 278
175 403
175 558
175 759
175 1639
175 1640
175 1641
176 185
176 219
176 247
176 326
176 441
176 497
176 498
176 499
176 500
176 501
177 235
177 299
177 320
177 344
177 378
177 715
177 832
177 1424
178 224
178 277
178 294
178 457
178 1426
179 262
179 270
179 292
179 297
179 298
179 306
179 328
179 366
179 408
179 426
179 472
179 571
179 573
179 627
179 628
179 782
180 235
180 264
180 318
180 358
180 397
180 416
180 709
181 288
181 293
181 314
181 325
181 370
181 391
181 535
181 562
181 567
181 716
181 717
181 718
181 1477
181 1478
181 1479
181 1480
181 1481
181 1482
182 282
182 354
182 368
182 385
182 478
182 585
182 587
183 289
183 312
183 334
183 458
184 561
184 765
185 219
185 376
185 572
186 267
186 343
186 346
186 362
186 568
186 1271
187 327
187 1358
187 1359
187 1360
188 341
188 375
188 551
189 288
189 314
189 557
189 1634
189 1635
189 1636
189 1637
189 1638
190 464
190 508
190 513
190 520
190 525
190 574
190 581
190 582
190 636
190 637
190 638
190 657
190 793
190 794
190 916
190 917
190 918
191 434
191 811
191 1841
191 1842
191 1843
191 1844
191 1845
191 1846
191 1847
191 1848
191 1849
191 1850
191 1851
191 1852
191 1853
191 1854
191 1855
191 1856
191 1857
191 1858
191 1859
191 1860
191 1861
191 1862
192 312
192 337
192 356
192 372
193 844
193 1954
193 1955
193 1956
193 1957
193 1958
193 1959
193 1960
194 533
194 601
194 614
194 623
194 714
194 820
194 866
194 867
195 398
195 1293
196 482
196 483
196 538
196 596
196 597
196 762
196 763
196 764
196 1642
197 198
197 273
197 290
197 421
197 440
197 543
197 1530
197 1531
198 440
198 827
198 1893
199 293
199 413
199 494
200 446
200 1612
200 1613
200 1614
200 1615
200 1616
200 1617
200 1618
200 1619
201 404
201 413
202 216
202 488
202 606
202 607
202 608
202 609
202 610
202 786
203 421
203 778
204 618
204 706
204 707
204 1445
204 1446
205 338
205 344
205 378
205 602
205 754
205 755
206 280
206 474
206 598
206 1705
207 259
207 698
207 724
208 235
208 236
208 288
208 299
208 319
208 329
208 352
208 374
208 400
208 454
208 661
208 1127
208 1128
208 1129
208 1130
208 1131
209 306
209 352
209 540
209 731
209 732
209 733
209 1494
209 1495
209 1496
210 299
210 306
210 324
210 327
210 378
210 397
210 535
210 617
211 431
211 434
211 506
211 589
211 633
211 634
211 905
211 906
211 907
211 908
211 909
212 220
212 294
212 457
213 296
213 343
213 346
213 382
213 412
213 423
213 523
213 1333
214 354
214 368
214 385
214 478
214 586
215 406
215 420
215 534
215 555
215 655
215 656
215 1091
216 239
216 321
216 488
216 606
216 607
216 608
216 609
216 610
216 786
217 284
217 495
217 496
217 510
217 511
217 615
217 616
217 824
217 825
217 826
217 1888
217 1889
217 1890
217 1891
217 1892
218 445
218 504
218 831
218 833
218 835
218 1908
219 341
219 342
219 375
220 1158
221 236
221 299
221 338
221 507
221 622
221 725
221 1447
221 1448
221 1449
221 1450
222 264
222 293
222 317
222 357
222 459
222 480
223 429
223 448
223 919
223 920
224 294
225 1675
225 1676
225 1677
225 1678
225 1679
225 1680
225 1681
225 1682
225 1683
226 264
226 293
226 317
226 340
226 349
226 355
226 370
226 371
226 403
226 409
226 415
226 429
226 430
226 431
226 481
226 594
227 237
227 348
228 284
228 334
228 336
228 379
228 595
229 358
229 468
230 236
230 436
231 398
231 425
231 513
231 887
232 262
232 424
232 439
233 254
233 340
233 442
233 611
233 759
233 760
233 815
234 265
234 322
234 505
235 265
235 300
235 308
235 315
235 348
235 410
235 829
235 830
236 237
236 267
237 329
237 348
237 1998
237 1999
238 249
238 389
238 648
238 649
238 650
238 651
238 728
238 729
239 428
239 616
239 675
240 391
240 399
240 951
240 952
240 953
240 954
240 955
240 956
240 957
241 319
241 347
241 1309
241 1310
242 288
242 352
242 383
242 660
242 727
243 581
243 1706
243 1707
244 293
244 317
244 355
244 370
244 415
244 431
244 510
244 1752
245 284
245 1876
245 1877
245 1878
245 1879
245 1880
246 620
246 829
247 326
247 441
247 1425
248 387
249 288
249 648
249 649
249 650
249 651
249 1024
249 1025
249 1026
250 316
250 647
250 689
250 690
250 691
250 692
250 694
250 695
250 1015
250 1016
250 1017
250 1018
250 1019
250 1020
250 1021
250 1022
250 1023
251 345
251 470
251 772
252 570
252 1700
253 401
254 403
254 804
254 1791
255 718
255 958
256 296
256 299
256 338
256 343
256 363
256 374
256 382
256 400
256 523
256 674
256 1028
257 428
257 470
257 1364
258 366
259 401
260 508
260 520
260 525
260 574
260 582
260 636
260 637
260 638
261 324
261 487
261 816
261 817
261 1867
261 1868
261 1869
261 1870
262 275
262 283
263 287
265 289
265 320
265 338
265 583
266 365
266 1120
267 320
267 329
267 394
267 1121
267 1122
267 1123
267 1124
268 363
268 411
268 522
268 554
269 288
269 352
269 473
269 1587
269 1588
270 297
270 298
270 472
270 573
270 1701
270 1702
270 1703
271 319
271 347
271 475
271 576
271 577
271 783
271 1710
271 1711
271 1712
271 1713
271 1714
271 1715
271 1716
271 1717
272 288
272 313
272 352
272 364
272 383
272 497
272 775
272 776
272 1687
272 1688
272 1689
272 1690
272 1691
272 1692
274 509
274 1961
274 1962
275 306
275 338
275 526
275 855
275 856
276 347
276 352
276 364
276 497
276 559
276 570
276 665
276 702
276 703
276 776
276 1029
276 1030
277 294
277 396
278 284
278 292
278 511
278 552
278 553
278 748
278 1589
278 1590
278 1591
278 1592
278 1593
278 1594
278 1595
279 567
279 788
279 1684
279 1685
279 1686
280 779
281 760
281 828
283 292
283 314
284 295
285 414
285 652
286 331
286 477
286 666
286 1111
286 1112
286 1113
286 1114
286 1115
286 1116
286 1117
286 1118
286 1119
287 504
287 1443
287 1444
288 310
288 335
289 315
291 322
293 307
295 327
295 379
295 549
295 665
295 745
296 423
296 523
296 674
297 1421
298 327
298 472
298 573
299 308
299 505
300 343
300 344
300 391
300 392
300 416
300 448
301 385
301 587
301 588
301 1050
302 399
302 757
302 758
303 327
303 575
303 1709
308 344
308 378
308 416
309 518
309 685
310 379
310 487
310 556
310 756
310 1632
310 1633
311 520
311 680
311 712
311 1303
311 1304
311 1305
311 1306
311 1307
311 1308
313 612
313 813
313 814
313 815
313 1863
313 1864
313 1865
313 1866
315 338
316 319
321 488
321 515
325 1871
325 1872
325 1873
325 1874
325 1875
326 376
330 590
330 670
330 1031
330 1032
330 1033
330 1034
330 1035
330 1036
330 1037
330 1038
331 383
331 666
331 817
331 1135
333 384
334 359
335 466
335 715
335 1475
335 1476
342 470
348 410
350 357
350 684
350 1334
350 1335
357 438
357 459
359 379
359 834
360 507
360 516
360 669
360 1152
360 1153
360 1154
360 1155
365 426
369 427
369 589
369 590
369 797
369 798
369 1784
407 451
414 505
417 923
417 924
417 925
417 926
426 472
426 1694
444 1904
444 1905
444 1906
444 1907
451 464
451 797
482 538
483 538
505 1921
701 702
